p cnf 386 460
7 -12 10 21 22 0
7 -12 10 21 -22 0
7 -12 10 -21 23 0
7 -12 10 -21 -23 0
-18 -1 -7 24 25 0
-18 -1 -7 24 -25 0
-18 -1 -7 -24 26 0
-18 -1 -7 -24 -26 0
9 -15 6 27 28 0
9 -15 6 27 -28 0
9 -15 6 -27 29 0
9 -15 6 -27 -29 0
-10 1 -2 30 31 0
-10 1 -2 30 -31 0
-10 1 -2 -30 32 0
-10 1 -2 -30 -32 0
11 1 -7 33 34 0
11 1 -7 33 -34 0
11 1 -7 -33 35 0
11 1 -7 -33 -35 0
17 -11 6 36 37 0
17 -11 6 36 -37 0
17 -11 6 -36 38 0
17 -11 6 -36 -38 0
-11 13 -1 39 40 0
-11 13 -1 39 -40 0
-11 13 -1 -39 41 0
-11 13 -1 -39 -41 0
-15 17 13 42 43 0
-15 17 13 42 -43 0
-15 17 13 -42 44 0
-15 17 13 -42 -44 0
1 15 -8 45 46 0
1 15 -8 45 -46 0
1 15 -8 -45 47 0
1 15 -8 -45 -47 0
1 20 -14 48 49 0
1 20 -14 48 -49 0
1 20 -14 -48 50 0
1 20 -14 -48 -50 0
2 19 10 51 52 0
2 19 10 51 -52 0
2 19 10 -51 53 0
2 19 10 -51 -53 0
8 -16 18 54 55 0
8 -16 18 54 -55 0
8 -16 18 -54 56 0
8 -16 18 -54 -56 0
7 2 19 57 58 0
7 2 19 57 -58 0
7 2 19 -57 59 0
7 2 19 -57 -59 0
7 1 14 60 61 0
7 1 14 60 -61 0
7 1 14 -60 62 0
7 1 14 -60 -62 0
-10 -9 -1 63 64 0
-10 -9 -1 63 -64 0
-10 -9 -1 -63 65 0
-10 -9 -1 -63 -65 0
19 -11 -8 66 67 0
19 -11 -8 66 -67 0
19 -11 -8 -66 68 0
19 -11 -8 -66 -68 0
14 11 -10 69 70 0
14 11 -10 69 -70 0
14 11 -10 -69 71 0
14 11 -10 -69 -71 0
9 -10 16 72 73 0
9 -10 16 72 -73 0
9 -10 16 -72 74 0
9 -10 16 -72 -74 0
14 -2 -4 75 76 0
14 -2 -4 75 -76 0
14 -2 -4 -75 77 0
14 -2 -4 -75 -77 0
-15 -20 -2 78 79 0
-15 -20 -2 78 -79 0
-15 -20 -2 -78 80 0
-15 -20 -2 -78 -80 0
13 15 -4 81 82 0
13 15 -4 81 -82 0
13 15 -4 -81 83 0
13 15 -4 -81 -83 0
13 -14 -9 84 85 0
13 -14 -9 84 -85 0
13 -14 -9 -84 86 0
13 -14 -9 -84 -86 0
-17 -5 -20 87 88 0
-17 -5 -20 87 -88 0
-17 -5 -20 -87 89 0
-17 -5 -20 -87 -89 0
-15 -5 18 90 91 0
-15 -5 18 90 -91 0
-15 -5 18 -90 92 0
-15 -5 18 -90 -92 0
-11 7 8 93 94 0
-11 7 8 93 -94 0
-11 7 8 -93 95 0
-11 7 8 -93 -95 0
6 -14 -18 96 97 0
6 -14 -18 96 -97 0
6 -14 -18 -96 98 0
6 -14 -18 -96 -98 0
7 12 16 99 100 0
7 12 16 99 -100 0
7 12 16 -99 101 0
7 12 16 -99 -101 0
-6 11 7 102 103 0
-6 11 7 102 -103 0
-6 11 7 -102 104 0
-6 11 7 -102 -104 0
-14 -8 19 105 106 0
-14 -8 19 105 -106 0
-14 -8 19 -105 107 0
-14 -8 19 -105 -107 0
-2 6 -14 108 109 0
-2 6 -14 108 -109 0
-2 6 -14 -108 110 0
-2 6 -14 -108 -110 0
-20 -14 -9 111 112 0
-20 -14 -9 111 -112 0
-20 -14 -9 -111 113 0
-20 -14 -9 -111 -113 0
1 3 -11 114 115 0
1 3 -11 114 -115 0
1 3 -11 -114 116 0
1 3 -11 -114 -116 0
-16 20 4 117 118 0
-16 20 4 117 -118 0
-16 20 4 -117 119 0
-16 20 4 -117 -119 0
-7 10 4 120 121 0
-7 10 4 120 -121 0
-7 10 4 -120 122 0
-7 10 4 -120 -122 0
-20 15 -3 123 124 0
-20 15 -3 123 -124 0
-20 15 -3 -123 125 0
-20 15 -3 -123 -125 0
13 -2 -16 126 127 0
13 -2 -16 126 -127 0
13 -2 -16 -126 128 0
13 -2 -16 -126 -128 0
6 7 -15 129 130 0
6 7 -15 129 -130 0
6 7 -15 -129 131 0
6 7 -15 -129 -131 0
-7 -14 17 132 133 0
-7 -14 17 132 -133 0
-7 -14 17 -132 134 0
-7 -14 17 -132 -134 0
15 -18 16 135 136 0
15 -18 16 135 -136 0
15 -18 16 -135 137 0
15 -18 16 -135 -137 0
6 10 -12 138 139 0
6 10 -12 138 -139 0
6 10 -12 -138 140 0
6 10 -12 -138 -140 0
18 -4 9 141 142 0
18 -4 9 141 -142 0
18 -4 9 -141 143 0
18 -4 9 -141 -143 0
-7 9 -1 144 145 0
-7 9 -1 144 -145 0
-7 9 -1 -144 146 0
-7 9 -1 -144 -146 0
18 3 -12 147 148 0
18 3 -12 147 -148 0
18 3 -12 -147 149 0
18 3 -12 -147 -149 0
3 -20 13 150 151 0
3 -20 13 150 -151 0
3 -20 13 -150 152 0
3 -20 13 -150 -152 0
-13 5 15 153 154 0
-13 5 15 153 -154 0
-13 5 15 -153 155 0
-13 5 15 -153 -155 0
-15 11 -16 156 157 0
-15 11 -16 156 -157 0
-15 11 -16 -156 158 0
-15 11 -16 -156 -158 0
1 16 -8 159 160 0
1 16 -8 159 -160 0
1 16 -8 -159 161 0
1 16 -8 -159 -161 0
17 -4 20 162 163 0
17 -4 20 162 -163 0
17 -4 20 -162 164 0
17 -4 20 -162 -164 0
-7 15 -1 165 166 0
-7 15 -1 165 -166 0
-7 15 -1 -165 167 0
-7 15 -1 -165 -167 0
-3 -14 2 168 169 0
-3 -14 2 168 -169 0
-3 -14 2 -168 170 0
-3 -14 2 -168 -170 0
-4 -5 19 171 172 0
-4 -5 19 171 -172 0
-4 -5 19 -171 173 0
-4 -5 19 -171 -173 0
19 20 4 174 175 0
19 20 4 174 -175 0
19 20 4 -174 176 0
19 20 4 -174 -176 0
4 18 14 177 178 0
4 18 14 177 -178 0
4 18 14 -177 179 0
4 18 14 -177 -179 0
5 -13 -19 180 181 0
5 -13 -19 180 -181 0
5 -13 -19 -180 182 0
5 -13 -19 -180 -182 0
2 -15 13 183 184 0
2 -15 13 183 -184 0
2 -15 13 -183 185 0
2 -15 13 -183 -185 0
11 -15 8 186 187 0
11 -15 8 186 -187 0
11 -15 8 -186 188 0
11 -15 8 -186 -188 0
17 -12 7 189 190 0
17 -12 7 189 -190 0
17 -12 7 -189 191 0
17 -12 7 -189 -191 0
11 1 -6 192 193 0
11 1 -6 192 -193 0
11 1 -6 -192 194 0
11 1 -6 -192 -194 0
-8 -6 7 195 196 0
-8 -6 7 195 -196 0
-8 -6 7 -195 197 0
-8 -6 7 -195 -197 0
-14 12 20 198 199 0
-14 12 20 198 -199 0
-14 12 20 -198 200 0
-14 12 20 -198 -200 0
-8 -17 -11 201 202 0
-8 -17 -11 201 -202 0
-8 -17 -11 -201 203 0
-8 -17 -11 -201 -203 0
-14 3 -4 204 205 0
-14 3 -4 204 -205 0
-14 3 -4 -204 206 0
-14 3 -4 -204 -206 0
5 1 -18 207 208 0
5 1 -18 207 -208 0
5 1 -18 -207 209 0
5 1 -18 -207 -209 0
16 -12 3 210 211 0
16 -12 3 210 -211 0
16 -12 3 -210 212 0
16 -12 3 -210 -212 0
-19 4 -10 213 214 0
-19 4 -10 213 -214 0
-19 4 -10 -213 215 0
-19 4 -10 -213 -215 0
3 -19 -14 216 217 0
3 -19 -14 216 -217 0
3 -19 -14 -216 218 0
3 -19 -14 -216 -218 0
-5 -7 -16 219 220 0
-5 -7 -16 219 -220 0
-5 -7 -16 -219 221 0
-5 -7 -16 -219 -221 0
14 -19 -2 222 223 0
14 -19 -2 222 -223 0
14 -19 -2 -222 224 0
14 -19 -2 -222 -224 0
20 -18 -12 225 226 0
20 -18 -12 225 -226 0
20 -18 -12 -225 227 0
20 -18 -12 -225 -227 0
17 -11 2 228 229 0
17 -11 2 228 -229 0
17 -11 2 -228 230 0
17 -11 2 -228 -230 0
-12 -19 4 231 232 0
-12 -19 4 231 -232 0
-12 -19 4 -231 233 0
-12 -19 4 -231 -233 0
10 12 -1 234 235 0
10 12 -1 234 -235 0
10 12 -1 -234 236 0
10 12 -1 -234 -236 0
8 10 -14 237 238 0
8 10 -14 237 -238 0
8 10 -14 -237 239 0
8 10 -14 -237 -239 0
-18 -1 13 240 241 0
-18 -1 13 240 -241 0
-18 -1 13 -240 242 0
-18 -1 13 -240 -242 0
19 -2 15 243 244 0
19 -2 15 243 -244 0
19 -2 15 -243 245 0
19 -2 15 -243 -245 0
-2 5 -10 246 247 0
-2 5 -10 246 -247 0
-2 5 -10 -246 248 0
-2 5 -10 -246 -248 0
-5 -12 -20 249 250 0
-5 -12 -20 249 -250 0
-5 -12 -20 -249 251 0
-5 -12 -20 -249 -251 0
-19 -7 12 252 253 0
-19 -7 12 252 -253 0
-19 -7 12 -252 254 0
-19 -7 12 -252 -254 0
17 -16 -20 255 256 0
17 -16 -20 255 -256 0
17 -16 -20 -255 257 0
17 -16 -20 -255 -257 0
12 -11 15 258 259 0
12 -11 15 258 -259 0
12 -11 15 -258 260 0
12 -11 15 -258 -260 0
13 -14 2 261 262 0
13 -14 2 261 -262 0
13 -14 2 -261 263 0
13 -14 2 -261 -263 0
14 4 -20 264 265 0
14 4 -20 264 -265 0
14 4 -20 -264 266 0
14 4 -20 -264 -266 0
4 8 -10 267 268 0
4 8 -10 267 -268 0
4 8 -10 -267 269 0
4 8 -10 -267 -269 0
18 -19 12 270 271 0
18 -19 12 270 -271 0
18 -19 12 -270 272 0
18 -19 12 -270 -272 0
18 -1 19 273 274 0
18 -1 19 273 -274 0
18 -1 19 -273 275 0
18 -1 19 -273 -275 0
-17 -8 -20 276 277 0
-17 -8 -20 276 -277 0
-17 -8 -20 -276 278 0
-17 -8 -20 -276 -278 0
-19 -10 -16 279 280 0
-19 -10 -16 279 -280 0
-19 -10 -16 -279 281 0
-19 -10 -16 -279 -281 0
17 -18 4 282 283 0
17 -18 4 282 -283 0
17 -18 4 -282 284 0
17 -18 4 -282 -284 0
18 17 -5 285 286 0
18 17 -5 285 -286 0
18 17 -5 -285 287 0
18 17 -5 -285 -287 0
-13 1 15 288 289 0
-13 1 15 288 -289 0
-13 1 15 -288 290 0
-13 1 15 -288 -290 0
-19 -2 -15 291 292 0
-19 -2 -15 291 -292 0
-19 -2 -15 -291 293 0
-19 -2 -15 -291 -293 0
294 295 297 301 309 0
294 295 297 301 -309 0
294 295 297 -301 310 0
294 295 297 -301 -310 0
294 295 -297 302 311 0
294 295 -297 302 -311 0
294 295 -297 -302 312 0
294 295 -297 -302 -312 0
294 -295 298 303 313 0
294 -295 298 303 -313 0
294 -295 298 -303 314 0
294 -295 298 -303 -314 0
294 -295 -298 304 315 0
294 -295 -298 304 -315 0
294 -295 -298 -304 316 0
294 -295 -298 -304 -316 0
-294 296 299 305 317 0
-294 296 299 305 -317 0
-294 296 299 -305 318 0
-294 296 299 -305 -318 0
-294 296 -299 306 319 0
-294 296 -299 306 -319 0
-294 296 -299 -306 320 0
-294 296 -299 -306 -320 0
-294 -296 300 307 321 0
-294 -296 300 307 -321 0
-294 -296 300 -307 322 0
-294 -296 300 -307 -322 0
-294 -296 -300 308 323 0
-294 -296 -300 308 -323 0
-294 -296 -300 -308 324 0
-294 -296 -300 -308 -324 0
325 326 328 332 340 0
325 326 328 332 -340 0
325 326 328 -332 341 0
325 326 328 -332 -341 0
325 326 -328 333 342 0
325 326 -328 333 -342 0
325 326 -328 -333 343 0
325 326 -328 -333 -343 0
325 -326 329 334 344 0
325 -326 329 334 -344 0
325 -326 329 -334 345 0
325 -326 329 -334 -345 0
325 -326 -329 335 346 0
325 -326 -329 335 -346 0
325 -326 -329 -335 347 0
325 -326 -329 -335 -347 0
-325 327 330 336 348 0
-325 327 330 336 -348 0
-325 327 330 -336 349 0
-325 327 330 -336 -349 0
-325 327 -330 337 350 0
-325 327 -330 337 -350 0
-325 327 -330 -337 351 0
-325 327 -330 -337 -351 0
-325 -327 331 338 352 0
-325 -327 331 338 -352 0
-325 -327 331 -338 353 0
-325 -327 331 -338 -353 0
-325 -327 -331 339 354 0
-325 -327 -331 339 -354 0
-325 -327 -331 -339 355 0
-325 -327 -331 -339 -355 0
356 357 359 363 371 0
356 357 359 363 -371 0
356 357 359 -363 372 0
356 357 359 -363 -372 0
356 357 -359 364 373 0
356 357 -359 364 -373 0
356 357 -359 -364 374 0
356 357 -359 -364 -374 0
356 -357 360 365 375 0
356 -357 360 365 -375 0
356 -357 360 -365 376 0
356 -357 360 -365 -376 0
356 -357 -360 366 377 0
356 -357 -360 366 -377 0
356 -357 -360 -366 378 0
356 -357 -360 -366 -378 0
-356 358 361 367 379 0
-356 358 361 367 -379 0
-356 358 361 -367 380 0
-356 358 361 -367 -380 0
-356 358 -361 368 381 0
-356 358 -361 368 -381 0
-356 358 -361 -368 382 0
-356 358 -361 -368 -382 0
-356 -358 362 369 383 0
-356 -358 362 369 -383 0
-356 -358 362 -369 384 0
-356 -358 362 -369 -384 0
-356 -358 -362 370 385 0
-356 -358 -362 370 -385 0
-356 -358 -362 -370 386 0
-356 -358 -362 -370 -386 0

